c 
c G(n,p) graph
c graph gen seed     : 29921
c number of vertices : 30
c max number of edges: 500
c edge probability   : 0.200000
c data structure     : sparse
c
c           Graph Stats
c number of vertices  : 30
c nonisolated vertices: 30
c number of edges     : 103
c edge density        : 0.236782
c max degree          : 12
c avg degree          : 6.87
c min degree          : 2
p col 30 103
e 1 29
e 1 28
e 1 21
e 1 10
e 1 7
e 1 5
e 1 2
e 2 26
e 2 24
e 2 20
e 2 17
e 2 15
e 2 11
e 2 10
e 2 9
e 3 30
e 3 29
e 3 28
e 3 16
e 3 10
e 3 7
e 4 29
e 4 28
e 4 27
e 4 25
e 4 24
e 4 18
e 4 9
e 4 5
e 5 30
e 5 28
e 5 25
e 5 20
e 5 17
e 5 13
e 5 12
e 5 7
e 6 22
e 6 11
e 6 8
e 7 28
e 7 27
e 7 24
e 7 19
e 7 16
e 7 11
e 8 20
e 8 15
e 8 14
e 8 12
e 8 10
e 9 26
e 9 25
e 9 24
e 9 10
e 10 30
e 10 29
e 10 24
e 10 22
e 10 20
e 10 12
e 10 11
e 11 26
e 11 24
e 11 22
e 11 19
e 12 24
e 12 15
e 12 14
e 13 27
e 13 22
e 13 19
e 13 18
e 13 17
e 13 14
e 14 29
e 14 25
e 14 23
e 14 22
e 14 21
e 14 17
e 15 22
e 15 21
e 15 19
e 17 23
e 17 20
e 17 19
e 18 30
e 18 22
e 18 21
e 19 28
e 19 27
e 19 23
e 19 21
e 20 29
e 20 22
e 21 23
e 22 26
e 23 29
e 24 27
e 25 26
e 26 30
e 26 28
